maximize
0.5V(0,15) + 0.5V(0,17)
subject to
V(0,15) - 1F(0,15) - 0F(0,17) - V(1,15) <= 0
V(0,17) - 0F(0,15) - 1F(0,17) - V(1,17) <= 0
V(1,15) - 1F(1,15) - 0F(1,17) - V(2,15) <= 0
V(1,17) - 0F(1,15) - 1F(1,17) - V(2,17) <= 0
V(1,15) - 1F(1,15) - 0F(1,17) - V(3,15) <= 0
V(1,17) - 0F(1,15) - 1F(1,17) - V(3,17) <= 0
V(2,15) - 1F(2,15) - 0F(2,17) - V(5,15) <= 0
V(2,17) - 0F(2,15) - 1F(2,17) - V(5,17) <= 0
V(5,15) - 1F(S0,15) - 0F(S0,17) - V(6,15) <= 0
V(5,17) - 0F(S0,15) - 1F(S0,17) - V(6,17) <= 0
V(5,15) - 1F(S0,15) - 0F(S0,17) - V(4,15) <= 0
V(5,17) - 0F(S0,15) - 1F(S0,17) - V(4,17) <= 0
V(4,15) - 1F(S0,15) - 0F(S0,17) - V(10,15) <= 0
V(4,17) - 0F(S0,15) - 1F(S0,17) - V(10,17) <= 0
V(10,15) - 1F(10,15) - 0F(10,17) - V(15,15) <= 0
V(10,17) - 0F(10,15) - 1F(10,17) - V(15,17) <= 0
V(15,15) = 0
V(15,17) - 0F(15,15) - 1F(15,17) - V(18,17) <= 0
V(18,15) - 1F(18,15) - 0F(18,17) - V(16,15) <= 0
V(18,17) - 0F(18,15) - 1F(18,17) - V(16,17) <= 0
V(18,15) - 1F(18,15) - 0F(18,17) - V(17,15) <= 0
V(18,17) - 0F(18,15) - 1F(18,17) - V(17,17) <= 0
V(6,15) - 1F(S0,15) - 0F(S0,17) - V(11,15) <= 0
V(6,17) - 0F(S0,15) - 1F(S0,17) - V(11,17) <= 0
V(11,15) - 1F(S0,15) - 0F(S0,17) - V(12,15) <= 0
V(11,17) - 0F(S0,15) - 1F(S0,17) - V(12,17) <= 0
V(1,15) - 1F(1,15) - 0F(1,17) - V(3,15) <= 0
V(1,17) - 0F(1,15) - 1F(1,17) - V(3,17) <= 0
V(3,15) - 1F(3,15) - 0F(3,17) - V(8,15) <= 0
V(3,17) - 0F(3,15) - 1F(3,17) - V(8,17) <= 0
V(8,15) - 1F(S1,15) - 0F(S1,17) - V(7,15) <= 0
V(8,17) - 0F(S1,15) - 1F(S1,17) - V(7,17) <= 0
V(7,15) - 1F(S1,15) - 0F(S1,17) - V(13,15) <= 0
V(7,17) - 0F(S1,15) - 1F(S1,17) - V(13,17) <= 0
V(13,15) - 1F(S1,15) - 0F(S1,17) - V(12,15) <= 0
V(13,17) - 0F(S1,15) - 1F(S1,17) - V(12,17) <= 0
V(8,15) - 1F(S1,15) - 0F(S1,17) - V(9,15) <= 0
V(8,17) - 0F(S1,15) - 1F(S1,17) - V(9,17) <= 0
V(9,15) - 1F(S1,15) - 0F(S1,17) - V(14,15) <= 0
V(9,17) - 0F(S1,15) - 1F(S1,17) - V(14,17) <= 0
V(14,15) - 1F(14,15) - 0F(14,17) - V(17,15) <= 0
V(14,17) - 0F(14,15) - 1F(14,17) - V(17,17) <= 0
V(1,15) - 1F(1,15) - 0F(1,17) - V(0,15) <= 0
V(1,17) - 0F(1,15) - 1F(1,17) - V(0,17) <= 0
V(2,15) - 1F(2,15) - 0F(2,17) - V(1,15) <= 0
V(2,17) - 0F(2,15) - 1F(2,17) - V(1,17) <= 0
V(3,15) - 1F(3,15) - 0F(3,17) - V(1,15) <= 0
V(3,17) - 0F(3,15) - 1F(3,17) - V(1,17) <= 0
V(5,15) - 1F(S0,15) - 0F(S0,17) - V(2,15) <= 0
V(5,17) - 0F(S0,15) - 1F(S0,17) - V(2,17) <= 0
V(6,15) - 1F(S0,15) - 0F(S0,17) - V(5,15) <= 0
V(6,17) - 0F(S0,15) - 1F(S0,17) - V(5,17) <= 0
V(4,15) - 1F(S0,15) - 0F(S0,17) - V(5,15) <= 0
V(4,17) - 0F(S0,15) - 1F(S0,17) - V(5,17) <= 0
V(10,15) - 1F(10,15) - 0F(10,17) - V(4,15) <= 0
V(10,17) - 0F(10,15) - 1F(10,17) - V(4,17) <= 0
V(15,15) = 0
V(15,17) - 0F(15,15) - 1F(15,17) - V(10,17) <= 0
V(18,15) - 1F(18,15) - 0F(18,17) - V(15,15) <= 0
V(18,17) - 0F(18,15) - 1F(18,17) - V(15,17) <= 0
V(16,15) - 1F(16,15) - 0F(16,17) - V(18,15) <= 0
V(16,17) - 0F(16,15) - 1F(16,17) - V(18,17) <= 0
V(17,15) - 1F(17,15) - 0F(17,17) - V(18,15) <= 0
V(17,17) = 0
V(11,15) - 1F(S0,15) - 0F(S0,17) - V(6,15) <= 0
V(11,17) - 0F(S0,15) - 1F(S0,17) - V(6,17) <= 0
V(12,15) - 1F(12,15) - 0F(12,17) - V(11,15) <= 0
V(12,17) - 0F(12,15) - 1F(12,17) - V(11,17) <= 0
V(3,15) - 1F(3,15) - 0F(3,17) - V(1,15) <= 0
V(3,17) - 0F(3,15) - 1F(3,17) - V(1,17) <= 0
V(8,15) - 1F(S1,15) - 0F(S1,17) - V(3,15) <= 0
V(8,17) - 0F(S1,15) - 1F(S1,17) - V(3,17) <= 0
V(7,15) - 1F(S1,15) - 0F(S1,17) - V(8,15) <= 0
V(7,17) - 0F(S1,15) - 1F(S1,17) - V(8,17) <= 0
V(13,15) - 1F(S1,15) - 0F(S1,17) - V(7,15) <= 0
V(13,17) - 0F(S1,15) - 1F(S1,17) - V(7,17) <= 0
V(12,15) - 1F(12,15) - 0F(12,17) - V(13,15) <= 0
V(12,17) - 0F(12,15) - 1F(12,17) - V(13,17) <= 0
V(9,15) - 1F(S1,15) - 0F(S1,17) - V(8,15) <= 0
V(9,17) - 0F(S1,15) - 1F(S1,17) - V(8,17) <= 0
V(14,15) - 1F(14,15) - 0F(14,17) - V(9,15) <= 0
V(14,17) - 0F(14,15) - 1F(14,17) - V(9,17) <= 0
V(17,15) - 1F(17,15) - 0F(17,17) - V(14,15) <= 0
V(17,17) = 0
F(0,15) + F(0,17) = 1
F(1,15) + F(1,17) = 1
F(2,15) + F(2,17) = 1
F(3,15) + F(3,17) = 1
F(S0,15) + F(S0,17) = 1
F(S0,15) + F(S0,17) = 1
F(S0,15) + F(S0,17) = 1
F(S1,15) + F(S1,17) = 1
F(S1,15) + F(S1,17) = 1
F(S1,15) + F(S1,17) = 1
F(10,15) + F(10,17) = 1
F(S0,15) + F(S0,17) = 1
F(12,15) + F(12,17) = 1
F(S1,15) + F(S1,17) = 1
F(14,15) + F(14,17) = 1
F(15,15) + F(15,17) = 1
F(16,15) + F(16,17) = 1
F(17,15) + F(17,17) = 1
F(18,15) + F(18,17) = 1
bounds
F(0,15) >= 0
F(0,17) >= 0
F(1,15) >= 0
F(1,17) >= 0
F(2,15) >= 0
F(2,17) >= 0
F(3,15) >= 0
F(3,17) >= 0
F(S0,15) >= 0
F(S0,17) >= 0
F(S0,15) >= 0
F(S0,17) >= 0
F(S0,15) >= 0
F(S0,17) >= 0
F(S1,15) >= 0
F(S1,17) >= 0
F(S1,15) >= 0
F(S1,17) >= 0
F(S1,15) >= 0
F(S1,17) >= 0
F(10,15) >= 0
F(10,17) >= 0
F(S0,15) >= 0
F(S0,17) >= 0
F(12,15) >= 0
F(12,17) >= 0
F(S1,15) >= 0
F(S1,17) >= 0
F(14,15) >= 0
F(14,17) >= 0
F(15,15) >= 0
F(15,17) >= 0
F(16,15) >= 0
F(16,17) >= 0
F(17,15) >= 0
F(17,17) >= 0
F(18,15) >= 0
F(18,17) >= 0
V(0,17) free
V(1,17) free
V(2,17) free
V(3,17) free
V(4,17) free
V(5,17) free
V(6,17) free
V(7,17) free
V(8,17) free
V(9,17) free
V(10,17) free
V(11,17) free
V(12,17) free
V(13,17) free
V(14,17) free
V(15,17) free
V(16,17) free
V(17,17) free
V(18,17) free
end